unknown
(model
; cardinality of BoundSet is 4
(declare-sort BoundSet 0)
; rep: @uc_BoundSet_0
; rep: @uc_BoundSet_1
; rep: @uc_BoundSet_2
; rep: @uc_BoundSet_3
; cardinality of UnboundSet is 1
(declare-sort UnboundSet 0)
(declare-fun groundTerm_5 () UnboundSet)
(define-fun Cried ((BOUND_VARIABLE_488 BoundSet)) Bool true)
(define-fun IsStudentOf ((BOUND_VARIABLE_495 BoundSet) (BOUND_VARIABLE_496 BoundSet)) Bool true)
(define-fun ShowedMaps ((BOUND_VARIABLE_505 BoundSet) (BOUND_VARIABLE_506 BoundSet) (BOUND_VARIABLE_507 BoundSet)) Bool true)
(define-fun DepictDamage ((BOUND_VARIABLE_495 BoundSet) (BOUND_VARIABLE_496 BoundSet)) Bool true)
(define-fun CalculatedDamage ((BOUND_VARIABLE_495 BoundSet) (BOUND_VARIABLE_496 BoundSet)) Bool false)
(define-fun FlewLow ((BOUND_VARIABLE_495 BoundSet) (BOUND_VARIABLE_496 BoundSet)) Bool false)
(define-fun IsSmall ((BOUND_VARIABLE_488 BoundSet)) Bool false)
)
sat
(model
; cardinality of BoundSet is 1
(declare-sort BoundSet 0)
; rep: @uc_BoundSet_0
; cardinality of UnboundSet is 1
(declare-sort UnboundSet 0)
(declare-fun groundTerm_7 () UnboundSet)
(define-fun Cried ((BOUND_VARIABLE_554 BoundSet)) Bool true)
(define-fun IsStudentOf ((BOUND_VARIABLE_561 BoundSet) (BOUND_VARIABLE_562 BoundSet)) Bool true)
(define-fun ShowedMaps ((BOUND_VARIABLE_571 BoundSet) (BOUND_VARIABLE_572 BoundSet) (BOUND_VARIABLE_573 BoundSet)) Bool true)
(define-fun DepictDamage ((BOUND_VARIABLE_561 BoundSet) (BOUND_VARIABLE_562 BoundSet)) Bool true)
(define-fun CalculatedDamage ((BOUND_VARIABLE_561 BoundSet) (BOUND_VARIABLE_562 BoundSet)) Bool false)
(define-fun FlewLow ((BOUND_VARIABLE_561 BoundSet) (BOUND_VARIABLE_562 BoundSet)) Bool true)
(define-fun IsSmall ((BOUND_VARIABLE_554 BoundSet)) Bool true)
)
